p tw 90 99
1 2
2 13
3 4
3 7
4 5
5 6
6 35
7 8
8 9
9 10
10 11
11 12
12 14
13 24
14 15
15 16
16 17
17 18
18 19
19 20
19 40
20 21
21 22
22 23
23 25
24 35
25 26
25 31
26 27
27 28
28 29
29 30
30 31
31 32
32 33
33 34
34 36
35 46
36 37
37 38
37 16
38 39
39 23
40 41
41 42
42 43
43 44
44 45
45 47
45 72
46 57
47 48
48 49
49 50
50 51
51 52
52 53
53 54
54 55
55 56
56 58
56 63
57 68
58 59
59 60
60 61
61 62
62 63
63 64
64 65
65 66
66 67
67 69
68 79
68 7
69 70
69 43
70 71
71 55
72 73
73 74
74 75
75 76
76 77
77 78
77 86
78 80
79 90
80 81
81 82
81 83
82 83
83 84
84 85
85 75
86 87
87 88
88 89
90 3
